2025-04-29 14:49:08,820 - INFO - --- optimisation run for PJM ---
2025-04-29 14:49:08,823 - INFO - Loaded Price_hourly.csv (8760 rows)
2025-04-29 14:49:08,833 - INFO - Loaded Price_ANS_hourly.csv (8760 rows)
2025-04-29 14:49:08,833 - INFO - Loaded sys_data_advanced.csv (45 rows)
2025-04-29 14:49:08,836 - INFO - Loaded MileageMultiplier_hourly.csv (8760 rows)
2025-04-29 14:49:08,836 - INFO - Creating STANDARDIZED model for PJM...
2025-04-29 14:49:08,836 - INFO - Loading parameters...
2025-04-29 14:49:08,840 - WARNING - Implicitly replacing the Component attribute pTurbine_min (type=<class 'pyomo.core.base.param.ScalarParam'>) on block Optimize_Profit_Standardized_PJM with a new Component (type=<class 'pyomo.core.base.param.ScalarParam'>).
This is usually indicative of a modelling error.
To avoid this warning, use block.del_component() and block.add_component().
2025-04-29 14:49:08,840 - WARNING - Implicitly replacing the Component attribute pTurbine_max (type=<class 'pyomo.core.base.param.ScalarParam'>) on block Optimize_Profit_Standardized_PJM with a new Component (type=<class 'pyomo.core.base.param.ScalarParam'>).
This is usually indicative of a modelling error.
To avoid this warning, use block.del_component() and block.add_component().
2025-04-29 14:49:08,840 - INFO - Successfully loaded and enabled non-linear turbine efficiency.
2025-04-29 14:49:08,840 - INFO - Loaded electrolyzer piecewise parameters (ke, kt). Ensure build_piecewise_efficiency_constraints uses them correctly.
2025-04-29 14:49:09,544 - INFO - Defining variables...
2025-04-29 14:49:09,777 - INFO - Defining constraints...
2025-04-29 14:49:10,284 - INFO - Added Linearized qSteam_Electrolyzer Ramp Constraint.
2025-04-29 14:49:10,284 - WARNING - Electrolyzer efficiency relationship (pElectrolyzer, mHydrogenProduced, qSteam_Electrolyzer) is NOT YET CONSTRAINED. Implement 'build_piecewise_efficiency_constraints'. Using simple fallback.
2025-04-29 14:49:10,446 - INFO - Building piece‑wise constraints for TurbinePower
2025-04-29 14:49:10,787 - INFO - Applying non-linear turbine efficiency constraints.
2025-04-29 14:49:12,677 - INFO - Defining objective function (Maximize Profit)...
2025-04-29 14:49:13,251 - INFO - Standardized model created successfully.
2025-04-29 14:49:13,262 - INFO - Set parameter Username
2025-04-29 14:49:13,267 - INFO - Academic license - for non-commercial use only - expires 2026-04-25
2025-04-29 14:49:20,127 - INFO - Read LP format model from file /tmp/tmp1zr3i1p6.pyomo.lp
2025-04-29 14:49:20,127 - INFO - Reading time = 0.58 seconds
2025-04-29 14:49:20,127 - INFO - x1: 350388 rows, 324117 columns, 1051159 nonzeros
2025-04-29 14:49:20,127 - INFO - Gurobi Optimizer version 12.0.1 build v12.0.1rc0 (linux64 - "Ubuntu 22.04.5 LTS")
2025-04-29 14:49:20,127 - INFO - 
2025-04-29 14:49:20,127 - INFO - CPU model: AMD Ryzen Threadripper PRO 5995WX 64-Cores, instruction set [SSE2|AVX|AVX2]
2025-04-29 14:49:20,127 - INFO - Thread count: 64 physical cores, 128 logical processors, using up to 32 threads
2025-04-29 14:49:20,127 - INFO - 
2025-04-29 14:49:20,127 - INFO - Optimize a model with 350388 rows, 324117 columns and 1051159 nonzeros
2025-04-29 14:49:20,139 - INFO - Model fingerprint: 0x4f59efa8
2025-04-29 14:49:20,139 - INFO - Model has 8760 quadratic constraints
2025-04-29 14:49:20,139 - INFO - Model has 8760 SOS constraints
2025-04-29 14:49:20,139 - INFO - Variable types: 297837 continuous, 26280 integer (26280 binary)
2025-04-29 14:49:20,141 - INFO - Coefficient statistics:
2025-04-29 14:49:20,141 - INFO -   Matrix range     [2e-02, 2e+03]
2025-04-29 14:49:20,141 - INFO -   QMatrix range    [2e-07, 2e-07]
2025-04-29 14:49:20,141 - INFO -   QLMatrix range   [1e-02, 1e+00]
2025-04-29 14:49:20,141 - INFO -   Objective range  [6e-03, 5e+04]
2025-04-29 14:49:20,141 - INFO -   Bounds range     [1e+00, 5e+04]
2025-04-29 14:49:20,141 - INFO -   RHS range        [1e+00, 5e+04]
2025-04-29 14:49:21,580 - INFO - Presolve removed 262810 rows and 219111 columns
2025-04-29 14:49:21,580 - INFO - Presolve time: 1.43s
2025-04-29 14:49:21,582 - INFO - Presolved: 122578 rows, 113756 columns, 367656 nonzeros
2025-04-29 14:49:21,634 - INFO - Variable types: 96237 continuous, 17519 integer (17519 binary)
2025-04-29 14:49:21,915 - INFO - Deterministic concurrent LP optimizer: primal and dual simplex
2025-04-29 14:49:21,915 - INFO - Showing primal log only...
2025-04-29 14:49:21,915 - INFO - 
2025-04-29 14:49:22,053 - INFO - Concurrent spin time: 0.00s
2025-04-29 14:49:22,053 - INFO - 
2025-04-29 14:49:22,053 - INFO - Solved with dual simplex
2025-04-29 14:49:22,088 - INFO - 
2025-04-29 14:49:22,088 - INFO - Root relaxation: objective 3.356158e+08, 24659 iterations, 0.30 seconds (0.38 work units)
2025-04-29 14:49:22,143 - INFO - 
2025-04-29 14:49:22,144 - INFO -     Nodes    |    Current Node    |     Objective Bounds      |     Work
2025-04-29 14:49:22,144 - INFO -  Expl Unexpl |  Obj  Depth IntInf | Incumbent    BestBd   Gap | It/Node Time
2025-04-29 14:49:22,144 - INFO - 
2025-04-29 14:49:22,144 - INFO - *    0     0               0    3.356158e+08 3.3562e+08  0.00%     -    2s
2025-04-29 14:49:22,268 - INFO - 
2025-04-29 14:49:22,269 - INFO - Explored 1 nodes (24659 simplex iterations) in 2.14 seconds (3.30 work units)
2025-04-29 14:49:22,269 - INFO - Thread count was 32 (of 128 available processors)
2025-04-29 14:49:22,269 - INFO - 
2025-04-29 14:49:22,269 - INFO - Solution count 1: 3.35616e+08 
2025-04-29 14:49:22,269 - INFO - 
2025-04-29 14:49:22,269 - INFO - Optimal solution found (tolerance 1.00e-04)
2025-04-29 14:49:22,272 - INFO - Best objective 3.356158038758e+08, best bound 3.356158038758e+08, gap 0.0000%
2025-04-29 14:49:23,906 - INFO - Optimisation finished – Profit = $335615803.88
2025-04-29 14:49:23,906 - INFO - Log saved to logs/PJM_optimization_standardized.log
